; Copyright (c) 2026 The RIINA Authors. All rights reserved.
; Copyright (c) 2026 The RIINA Authors.
; Auto-generated from 02_FORMAL/coq/domains/DependentTypes.v (33 assertions)
; Generated by scripts/generate-full-stack.py
; Module: DependentTypes

(set-logic ALL)
(set-option :produce-models true)

; DTerm (matches Coq: Inductive DTerm)
(declare-datatypes ((DTerm 0)) (((DVar) (DLam) (DApp) (DPair) (DFst) (DSnd) (DRefl) (DJ) (DNil) (DCons) (DHead) (DTail))))

; TYPE_005_01 (matches Coq: Theorem TYPE_005_01)
(assert (= true true)) ; TYPE_005_01 [untranslatable]

; TYPE_005_02 (matches Coq: Theorem TYPE_005_02)
(assert (= true true)) ; TYPE_005_02 [untranslatable]

; TYPE_005_03 (matches Coq: Theorem TYPE_005_03)
(assert (= true true)) ; TYPE_005_03 [untranslatable]

; TYPE_005_04 (matches Coq: Theorem TYPE_005_04)
(assert (= true true)) ; TYPE_005_04 [untranslatable]

; TYPE_005_05 (matches Coq: Theorem TYPE_005_05)
(assert (= true true)) ; TYPE_005_05 [untranslatable]

; TYPE_005_06 (matches Coq: Theorem TYPE_005_06)
(assert (= true true)) ; TYPE_005_06 [untranslatable]

; TYPE_005_07 (matches Coq: Theorem TYPE_005_07)
(assert (= true true)) ; TYPE_005_07 [untranslatable]

; TYPE_005_08 (matches Coq: Theorem TYPE_005_08)
(assert (= true true)) ; TYPE_005_08 [untranslatable]

; vec_cons_length_semantic (matches Coq: Lemma vec_cons_length_semantic)
(assert (= true true)) ; vec_cons_length_semantic [untranslatable]

; TYPE_005_09 (matches Coq: Theorem TYPE_005_09)
(assert (= true true)) ; TYPE_005_09 [untranslatable]

; vec_head_nonempty_semantic (matches Coq: Lemma vec_head_nonempty_semantic)
(assert (= true true)) ; vec_head_nonempty_semantic [untranslatable]

; TYPE_005_10 (matches Coq: Theorem TYPE_005_10)
(assert (= true true)) ; TYPE_005_10 [untranslatable]

; vec_dep_pattern_match (matches Coq: Lemma vec_dep_pattern_match)
(assert (= true true)) ; vec_dep_pattern_match [untranslatable]

; TYPE_005_11 (matches Coq: Theorem TYPE_005_11)
(assert (= true true)) ; TYPE_005_11 [untranslatable]

; transport_refl (matches Coq: Lemma transport_refl)
(assert (= true true)) ; transport_refl [untranslatable]

; transport_trans (matches Coq: Lemma transport_trans)
(assert (= true true)) ; transport_trans [untranslatable]

; TYPE_005_12 (matches Coq: Theorem TYPE_005_12)
(assert (= true true)) ; TYPE_005_12 [untranslatable]

; dep_congruence (matches Coq: Lemma dep_congruence)
(assert (= true true)) ; dep_congruence [untranslatable]

; congruence2 (matches Coq: Lemma congruence2)
(assert (= true true)) ; congruence2 [untranslatable]

; lt_wf_aux (matches Coq: Lemma lt_wf_aux)
(assert (= true true)) ; lt_wf_aux [untranslatable]

; lt_well_founded (matches Coq: Lemma lt_well_founded)
(assert (= true true)) ; lt_well_founded [untranslatable]

; TYPE_005_13 (matches Coq: Theorem TYPE_005_13)
(assert (= true true)) ; TYPE_005_13 [untranslatable]

; nat_dep_ind (matches Coq: Lemma nat_dep_ind)
(assert (= true true)) ; nat_dep_ind [untranslatable]

; strong_ind (matches Coq: Lemma strong_ind)
(assert (= true true)) ; strong_ind [untranslatable]

; TYPE_005_14 (matches Coq: Theorem TYPE_005_14)
(assert (= true true)) ; TYPE_005_14 [untranslatable]

; dec_eq_nat (matches Coq: Lemma dec_eq_nat)
(assert (= true true)) ; dec_eq_nat [untranslatable]

; dec_eq_bool (matches Coq: Lemma dec_eq_bool)
(assert (= true true)) ; dec_eq_bool [untranslatable]

; dec_eq_prod (matches Coq: Lemma dec_eq_prod)
(assert (= true true)) ; dec_eq_prod [untranslatable]

; dec_eq_option (matches Coq: Lemma dec_eq_option)
(assert (= true true)) ; dec_eq_option [untranslatable]

; dec_eq_list (matches Coq: Lemma dec_eq_list)
(assert (= true true)) ; dec_eq_list [untranslatable]

; dec_to_bool (matches Coq: Lemma dec_to_bool)
(assert (= true true)) ; dec_to_bool [untranslatable]

; nat_eq_reflect (matches Coq: Lemma nat_eq_reflect)
(assert (= true true)) ; nat_eq_reflect [untranslatable]

; uip_dec (matches Coq: Lemma uip_dec)
(assert (= true true)) ; uip_dec [untranslatable]

; Verify all assertions are satisfiable
(check-sat)
(exit)
